c 27 AngularJS
c 42 Maven
c 24 Server
c 13 PostgreSQL
c 20 False
c 34 Consul
c 51 MessageBroker
c 23 SearchEngine
c 37 MySql
c 43 MySQL
c 25 Client
c 44 EhCache
c 1 AuthenticationType
c 2 ServerSideOption
c 59 LibSass
c 5 HibernateCache
c 17 JWT
c 38 HTTPSession
c 52 SwaggerCodegen
c 47 SQL
c 7 ApplicationType
c 57 Angular4
c 45 Uaa
c 56 Oracle12c
c 49 MicroserviceApplication
c 22 MongoDB
c 9 NoDB
c 28 ClientFrameWork
c 53 Cucumber
c 36 MariaDBDev
c 46 Application
c 4 NoHB
c 18 H2InMemory
c 41 Gatling
c 16 Cassandra
c 8 Oauth2
c 58 SocialLogIn
c 12 H2DiskBased
c 14 ProDataBaseType
c 55 ClusteredHttpSession
c 35 MsSql
c 54 MsSQL
c 48 Oracle
c 10 DataBaseType
c 26 jhipster
c 21 ServiceDiscoveryType
c 11 MicroserviceGateway
c 39 MariaDB
c 15 Monolithic
c 60 WebSocket
c 3 DevDataBaseType
c 19 HazelCast
c 33 TestFramework
c 31 BuildTool
c 6 UaaServer
c 50 PostgreSQLDev
c 32 Protractor
c 30 Gradle
c 40 Infinispan
c 29 Eureka
p cnf 61 666
-1 2 0
-3 2 0
-4 5 0
-6 7 0
-8 1 0
-9 10 0
-4 5 0
-9 10 0
-11 7 0
-12 3 0
-13 14 0
-8 1 0
-10 2 0
-15 7 0
-16 10 0
-17 1 0
-16 10 0
-18 3 0
-19 5 0
-20 21 0
-22 10 0
-4 5 0
-23 24 0
-25 26 0
-27 28 0
-10 2 0
-27 28 0
-19 5 0
-29 21 0
-30 31 0
-11 7 0
-8 1 0
-1 2 0
-19 5 0
-32 33 0
-34 21 0
-35 3 0
-8 1 0
-6 7 0
-36 3 0
-37 3 0
-38 1 0
-9 10 0
-39 14 0
-13 14 0
-40 5 0
-9 10 0
-31 2 0
-39 14 0
-41 33 0
-42 31 0
-21 2 0
-3 2 0
-43 14 0
-13 14 0
-31 2 0
-32 33 0
-27 28 0
-38 1 0
-19 5 0
-15 7 0
-27 28 0
-30 31 0
-40 5 0
-22 10 0
-36 3 0
-44 5 0
-16 10 0
-18 3 0
-19 5 0
-45 1 0
-45 1 0
-16 10 0
-14 2 0
-19 5 0
-6 7 0
-36 3 0
-13 14 0
-43 14 0
-45 1 0
-22 10 0
-30 31 0
-33 46 0
-34 21 0
-39 14 0
-20 21 0
-9 10 0
-34 21 0
-16 10 0
-19 5 0
-44 5 0
-47 10 0
-12 3 0
-47 10 0
-10 2 0
-48 14 0
-49 7 0
-22 10 0
-4 5 0
-23 24 0
-18 3 0
-36 3 0
-29 21 0
-29 21 0
-50 3 0
-8 1 0
-51 24 0
-47 10 0
-22 10 0
-42 31 0
-41 33 0
-49 7 0
-20 21 0
-52 24 0
-45 1 0
-50 3 0
-8 1 0
-47 10 0
-11 7 0
-53 33 0
-52 24 0
-37 3 0
-6 7 0
-41 33 0
-32 33 0
-47 10 0
-41 33 0
-18 3 0
-37 3 0
-21 2 0
-36 3 0
-39 14 0
-4 5 0
-47 10 0
-54 14 0
-30 31 0
-9 10 0
-49 7 0
-38 1 0
-35 3 0
-10 2 0
-55 24 0
-56 3 0
-37 3 0
-47 10 0
-22 10 0
-54 14 0
-12 3 0
-35 3 0
-54 14 0
-38 1 0
-42 31 0
-48 14 0
-48 14 0
-22 10 0
-19 5 0
-40 5 0
-40 5 0
-6 7 0
-42 31 0
-40 5 0
-44 5 0
-47 10 0
-15 7 0
-36 3 0
-31 2 0
-35 3 0
-30 31 0
-22 10 0
-5 2 0
-9 10 0
-17 1 0
-37 3 0
-38 1 0
-14 2 0
-16 10 0
-45 1 0
-47 10 0
-29 21 0
-42 31 0
-17 1 0
-17 1 0
-6 7 0
-20 21 0
-17 1 0
-17 1 0
-44 5 0
-39 14 0
-28 25 0
-17 1 0
-5 2 0
-56 3 0
-29 21 0
-42 31 0
-22 10 0
-11 7 0
-8 1 0
-32 33 0
-22 10 0
-39 14 0
-44 5 0
-3 2 0
-4 5 0
-42 31 0
-31 2 0
-42 31 0
-2 24 0
-30 31 0
-53 33 0
-34 21 0
-17 1 0
-9 10 0
-57 28 0
-15 7 0
-49 7 0
-5 2 0
-58 24 0
-22 10 0
-2 24 0
-50 3 0
-17 1 0
-19 5 0
-7 46 0
-5 2 0
-44 5 0
-44 5 0
-29 21 0
-12 3 0
-21 2 0
-29 21 0
-47 10 0
-8 1 0
-45 1 0
-8 1 0
-9 10 0
-20 21 0
-44 5 0
-42 31 0
-29 21 0
-40 5 0
-50 3 0
-51 24 0
-20 21 0
-12 3 0
-40 5 0
-19 5 0
-12 3 0
-16 10 0
-14 2 0
-38 1 0
-22 10 0
-44 5 0
-5 2 0
-34 21 0
-34 21 0
-38 1 0
-53 33 0
-30 31 0
-49 7 0
-35 3 0
-50 3 0
-40 5 0
-54 14 0
-30 31 0
-4 5 0
-58 24 0
-20 21 0
-23 24 0
-34 21 0
-41 33 0
-53 33 0
-4 5 0
-38 1 0
-59 25 0
-16 10 0
-41 33 0
-22 10 0
-44 5 0
-21 2 0
-43 14 0
-36 3 0
-40 5 0
-21 2 0
-34 21 0
-34 21 0
-6 7 0
-49 7 0
-44 5 0
-1 2 0
-40 5 0
-3 2 0
-42 31 0
-47 10 0
-53 33 0
-42 31 0
-42 31 0
-35 3 0
-8 1 0
-20 21 0
-32 33 0
-29 21 0
-20 21 0
-58 24 0
-22 10 0
-12 3 0
-51 24 0
-47 10 0
-38 1 0
-17 1 0
-19 5 0
-50 3 0
-20 21 0
-8 1 0
-45 1 0
-46 26 0
-4 5 0
-16 10 0
-54 14 0
-16 10 0
-56 3 0
-29 21 0
-60 24 0
-1 2 0
-42 31 0
-3 2 0
-14 2 0
-40 5 0
-44 5 0
-54 14 0
-15 7 0
-10 2 0
-29 21 0
-11 7 0
-42 31 0
-55 24 0
-30 31 0
-4 5 0
-45 1 0
-49 7 0
-15 7 0
-59 25 0
-13 14 0
-16 10 0
-45 1 0
-44 5 0
-20 21 0
-43 14 0
-48 14 0
-35 3 0
-55 24 0
-5 2 0
-20 21 0
-19 5 0
-45 1 0
-25 26 0
-19 5 0
-56 3 0
-24 26 0
-3 2 0
-38 1 0
-33 46 0
-55 24 0
-24 26 0
-17 1 0
-5 2 0
-50 3 0
-41 33 0
-58 24 0
-29 21 0
-19 5 0
-40 5 0
-1 2 0
-4 5 0
-22 10 0
-38 1 0
-17 1 0
-40 5 0
-40 5 0
-32 33 0
-38 1 0
-20 21 0
-14 2 0
-37 3 0
-32 33 0
-56 3 0
-45 1 0
-57 28 0
-31 2 0
-38 1 0
-8 1 0
-50 3 0
-48 14 0
-9 10 0
-40 5 0
-13 14 0
-48 14 0
-20 21 0
-5 2 0
-34 21 0
-18 3 0
-42 31 0
-30 31 0
-35 3 0
-8 1 0
-13 14 0
-36 3 0
-8 1 0
-10 2 0
-16 10 0
-23 24 0
-14 2 0
-29 21 0
-45 1 0
-21 2 0
-30 31 0
-9 10 0
-48 14 0
-38 1 0
-57 28 0
-44 5 0
-4 5 0
-15 7 0
-9 10 0
-1 2 0
-47 10 0
-9 10 0
-57 28 0
-45 1 0
-28 25 0
-56 3 0
-43 14 0
-34 21 0
-14 2 0
-13 14 0
-53 33 0
-41 33 0
-56 3 0
-30 31 0
-14 2 0
-49 7 0
-11 7 0
-4 5 0
-4 5 0
-52 24 0
-40 5 0
-1 2 0
-54 14 0
-21 2 0
-4 5 0
-22 10 0
-38 1 0
-30 31 0
-7 46 0
-17 1 0
-32 33 0
-56 3 0
-16 10 0
-51 24 0
-16 10 0
-39 14 0
-47 10 0
-17 1 0
-18 3 0
-43 14 0
-48 14 0
-60 24 0
-7 46 0
-21 2 0
-34 21 0
-16 10 0
-19 5 0
-37 3 0
-34 21 0
-52 24 0
-29 21 0
-30 31 0
-29 21 0
-1 2 0
-31 2 0
-60 24 0
-7 46 0
-17 1 0
-4 5 0
-29 21 0
-16 10 0
-47 10 0
-2 24 0
-45 1 0
-11 7 0
-18 3 0
-45 1 0
-12 3 0
-54 14 0
-43 14 0
-33 46 0
-9 10 0
-37 3 0
-9 10 0
-30 31 0
-43 14 0
-39 14 0
-3 2 0
-20 21 0
-11 7 0
-9 10 0
-30 31 0
-47 10 0
-10 2 0
-31 2 0
-17 1 0
-20 21 0
-8 1 0
-2 24 0
-34 21 0
-38 1 0
-44 5 0
-34 21 0
-53 33 0
-44 5 0
-45 1 0
-42 31 0
-53 33 0
-60 24 0
-6 7 0
-3 2 0
-46 26 0
-31 2 0
-15 7 0
-8 1 0
-34 21 0
-33 46 0
-19 5 0
-18 3 0
-10 2 0
26 0
-2 10 0
-2 5 0
-24 2 0
-26 46 0
-2 31 0
-5 40 4 19 44 0
-40 -44 0
-4 -44 0
-19 -44 0
-4 -19 0
-40 -4 0
-40 -19 0
-10 47 9 16 22 0
-47 -9 0
-9 -22 0
-9 -16 0
-16 -22 0
-47 -16 0
-47 -22 0
-46 7 0
-26 24 0
-31 30 42 0
-30 -42 0
-46 33 0
61 26 0
-7 11 15 49 6 0
-49 -6 0
-11 -49 0
-11 -6 0
-15 -49 0
-11 -15 0
-15 -6 0
-25 28 0
-3 56 18 50 36 35 37 12 0
-36 -35 0
-18 -12 0
-50 -35 0
-36 -37 0
-36 -12 0
-18 -35 0
-56 -12 0
-56 -18 0
-50 -12 0
-18 -50 0
-56 -50 0
-56 -36 0
-18 -36 0
-56 -35 0
-56 -37 0
-18 -37 0
-50 -37 0
-35 -12 0
-50 -36 0
-37 -12 0
-35 -37 0
-2 1 0
-14 43 54 48 39 13 0
-43 -48 0
-54 -39 0
-48 -39 0
-39 -13 0
-43 -39 0
-54 -48 0
-48 -13 0
-43 -54 0
-43 -13 0
-54 -13 0
-28 27 57 0
-27 -57 0
-2 21 0
-1 38 45 8 17 0
-8 -17 0
-38 -17 0
-45 -17 0
-45 -8 0
-38 -8 0
-38 -45 0
-21 34 29 20 0
-29 -20 0
-34 -29 0
-34 -20 0
-48 0
-47 -48 12 18 56 0
-47 -43 12 18 37 0
-22 11 4 0
-16 11 4 0
-9 4 0
-56 0
-6 45 0
49 45 -9 0
49 11 -9 0
-15 20 29 0
47 -23 0
-47 -54 12 18 35 0
-47 -39 12 18 36 0
-11 19 0
-47 14 0
-8 47 22 0
-49 -25 0
-49 53 0
-49 41 0
-49 -32 0
-6 -25 0
-6 53 0
-6 41 0
-6 -32 0
-47 -13 12 18 50 0
-16 -58 0
15 -58 0
38 17 -58 0
-15 29 17 38 8 0
-11 17 45 0
-49 17 45 0
-22 -3 0
-22 -14 0
-16 -3 0
-16 -14 0
-9 -3 0
-9 -14 0
15 11 -55 0
4 19 -55 0
-29 45 17 0
-15 25 0
-15 53 0
-15 32 0
-15 41 0
-11 25 0
-11 53 0
-11 32 0
-11 41 0
15 11 -60 0
